Data path: /scratch/opt/lxu/CFLG/benchmarks/random_B
Instance: r_40_0.3_219.txt
Result path: /scratch/opt/lxu/CFLG/results/random_B
Solver: Gurobi
Time limit: 7200
Formulation: LEFPV
Cover: Large
julia --project=. src/main.jl /scratch/opt/lxu/CFLG/benchmarks/random_B r_40_0.3_219.txt /scratch/opt/lxu/CFLG/results/random_B Gurobi 7200 LEFPV Large
The latest version of Julia in the `release` channel is 1.11.5+0.x64.linux.gnu. You currently have `1.11.4+0.x64.linux.gnu` installed. Run:

  juliaup update

in your terminal shell to install Julia 1.11.5+0.x64.linux.gnu and update the `release` channel to that version.
/scratch/opt/lxu/CFLG/benchmarks/random_B Gurobi 7200.0 /scratch/opt/lxu/CFLG/results/random_B r_40_0.3_219.txt LEFPV Large
/scratch/opt/lxu/CFLG/benchmarks/random_B/r_40_0.3_219.txt

 read graph
data loaded

problem_graph/original graph: node: 40/40 edge: 219/219 dlt: 1.2662647431939615 break_avg_len: 0.6331323715969808 break_max_len: 0.9989750688619838Set parameter TokenServer to value "solice01.zib.de"
Set parameter Threads to value 1
Set parameter OutputFlag to value 1
Gurobi Optimizer version 12.0.1 build v12.0.1rc0 (linux64 - "Debian GNU/Linux 12 (bookworm)")

CPU model: Intel(R) Xeon(R) Gold 5122 CPU @ 3.60GHz, instruction set [SSE2|AVX|AVX2|AVX512]
Thread count: 8 physical cores, 16 logical processors, using up to 1 threads

Non-default parameters:
Threads  1

Optimize a model with 259 rows, 657 columns and 1095 nonzeros
Model fingerprint: 0xb84c5949
Coefficient statistics:
  Matrix range     [1e+00, 1e+00]
  Objective range  [1e+00, 1e+00]
  Bounds range     [1e+00, 1e+00]
  RHS range        [0e+00, 0e+00]
Presolve removed 259 rows and 657 columns
Presolve time: 0.00s
Presolve: All rows and columns removed
Iteration    Objective       Primal Inf.    Dual Inf.      Time
       0   -0.0000000e+00   0.000000e+00   0.000000e+00      0s

Solved in 0 iterations and 0.00 seconds (0.00 work units)
Optimal objective -0.000000000e+00

User-callback calls 35, time in user-callback 0.00 sec
elapsed CPU time: 1.23945 seconds
Set parameter TokenServer to value "solice01.zib.de"
Set parameter Threads to value 1
Set parameter OutputFlag to value 1
Set parameter MIPGap to value 0.0001
Set parameter MIPGapAbs to value 0.999998
Set parameter TimeLimit to value 7198.76055

 more cuts:falsefalse
0 0
formulation:LEFPV0 219 40
Set parameter PreCrush to value 1

 model loaded

Gurobi Optimizer version 12.0.1 build v12.0.1rc0 (linux64 - "Debian GNU/Linux 12 (bookworm)")

CPU model: Intel(R) Xeon(R) Gold 5122 CPU @ 3.60GHz, instruction set [SSE2|AVX|AVX2|AVX512]
Thread count: 8 physical cores, 16 logical processors, using up to 1 threads

Non-default parameters:
TimeLimit  7198.76055
MIPGapAbs  0.999998
PreCrush  1
Threads  1

Optimize a model with 36784 rows, 17535 columns and 109933 nonzeros
Model fingerprint: 0xfdd1ea01
Variable types: 478 continuous, 17057 integer (17057 binary)
Coefficient statistics:
  Matrix range     [1e-06, 2e+00]
  Objective range  [1e+00, 1e+00]
  Bounds range     [3e-01, 1e+00]
  RHS range        [3e-01, 2e+01]
Found heuristic solution: objective 25.0000000
Presolve removed 8201 rows and 256 columns
Presolve time: 0.42s
Presolved: 28583 rows, 17279 columns, 101295 nonzeros
Variable types: 259 continuous, 17020 integer (17020 binary)

Root relaxation: objective 4.706201e-01, 10818 iterations, 1.40 seconds (2.75 work units)

    Nodes    |    Current Node    |     Objective Bounds      |     Work
 Expl Unexpl |  Obj  Depth IntInf | Incumbent    BestBd   Gap | It/Node Time

     0     0    0.47062    0 1015   25.00000    0.47062  98.1%     -    3s
H    0     0                       7.0000000    0.47062  93.3%     -    3s
H    0     0                       6.0000000    0.47062  92.2%     -    3s
H    0     0                       5.0000000    0.47062  90.6%     -    3s
H    0     0                       4.0000000    0.47062  88.2%     -    4s
H    0     0                       3.0000000    0.47062  84.3%     -    4s
elapsed CPU time: 1.3843681795562705e13 seconds
     0     0    0.70961    0  672    3.00000    0.70961  76.3%     -   12s
H    0     0                       2.0000000    0.70995  64.5%     -   15s
elapsed CPU time: 0.308887 seconds
     0     0    0.74014    0  835    2.00000    0.74014  63.0%     -   16s
elapsed CPU time: 0.266945 seconds
     0     0    0.74014    0  833    2.00000    0.74014  63.0%     -   17s
elapsed CPU time: 0.272384 seconds
     0     0    0.74251    0  833    2.00000    0.74251  62.9%     -   18s
elapsed CPU time: 0.253707 seconds
     0     0    0.85224    0 1157    2.00000    0.85224  57.4%     -   20s
     0     0    0.85312    0 1115    2.00000    0.85312  57.3%     -   20s
elapsed CPU time: 0.258831 seconds
     0     0    0.85376    0 1082    2.00000    0.85376  57.3%     -   21s
elapsed CPU time: 0.273743 seconds
     0     0    0.87569    0 1023    2.00000    0.87569  56.2%     -   22s
elapsed CPU time: 0.269548 seconds

Cutting planes:
  User: 52
  Learned: 1
  Cover: 6
  Implied bound: 7
  Clique: 3
  MIR: 73
  StrongCG: 4
  GUB cover: 10
  Zero half: 4
  RLT: 7
  Relax-and-lift: 8
  BQP: 66

Explored 1 nodes (39751 simplex iterations) in 24.53 seconds (23.68 work units)
Thread count was 1 (of 16 available processors)

Solution count 7: 2 3 4 ... 25

Optimal solution found (tolerance 1.00e-04)
Best objective 2.000000000000e+00, best bound 2.000000000000e+00, gap 0.0000%

User-callback calls 7633, time in user-callback 3.71 sec

 sepatime1.384368179556461e13 8893 8
2.0Stat(MathOptInterface.OPTIMAL, 2.0, 2.0, 0.0, 1.384368179556461e13, 1.23945, 24.52826690673828, 1, Main.CFLG.LEFPV, "", #undef)
